

WORLDSIZE 1000

# A 5x5x5 cm box centered at origin. The source starts at the center and
# the box is many alpha ranges thick, so all alphas stop inside the material.
VOLUME 1 Sample 1 2 0 - 5 5 5 0 0 0

# Isotopically pure target. Density (g/cm^3) is what SaG4n passes to
# the stopping-power calculation. We use 1 g/cm^3 for all monoisotopic
# targets to match the style of upstream SaG4n examples and avoid arbitrary
# gas/liquid phase choices; thick-target yields are density independent.
MATERIAL 1 C-13 1.000 1
6013 1.0
ENDMATERIAL

# Beam: PostType=-1, origin at (0,0,0), direction +z, radius 0, sigma 0.
# Source intensity: 1 alpha per primary, energy E_alpha (MeV), no spread.
SOURCE -1 0 0 0 0 0 1 0 0
1.00 1
Alpha10MeV 10.0 1 0
ENDSOURCE

MAXSTEPSIZE 0.0100
BIASFACTOR 1000

NEVENTS 10000000
OUTPUTFILE /home/nelson254/alphanso-analysis/SaG4n-timing/results/raw/sag4n_C-13_t2
OUTPUTTYPE 1 0 1
SEED 1256418

END

# EOF sentinel: unread by SaG4n because parsing stops at END.
